NAME: ./prFile/tspFile/tsp_file53.tsp
COMMENT: TSP file generated by Python
TYPE: TSP
DIMENSION: 40
EDGE_WEIGHT_TYPE: EUC_2D
NODE_COORD_SECTION
1 35 12
2 61 31
3 59 26
4 16 26
5 28 97
6 44 69
7 31 1
8 31 80
9 96 7
10 80 55
11 8 5
12 61 54
13 35 57
14 40 29
15 53 40
16 47 63
17 7 75
18 18 47
19 37 78
20 20 13
21 77 26
22 80 62
23 99 26
24 82 46
25 100 29
26 72 18
27 39 10
28 70 15
29 77 77
30 51 12
31 15 96
32 76 94
33 27 66
34 25 2
35 9 45
36 24 20
37 40 10
38 34 30
39 72 30
40 16 12
EOF
